80
2214
4
0
11
70
11
0 1
0 2
0 3
0 4
0 5
0 7
0 8
0 9
0 10
0 11
0 13
0 15
0 16
0 17
0 18
0 19
0 22
0 25
0 26
0 27
0 28
0 29
0 30
0 31
0 32
0 33
0 35
0 36
0 37
0 38
0 39
0 40
0 45
0 46
0 49
0 50
0 51
0 52
0 53
0 55
0 56
0 57
0 58
0 59
0 60
0 62
0 63
0 64
0 65
0 66
0 67
0 68
0 70
0 71
0 72
0 73
0 74
0 77
1 3
1 4
1 5
1 6
1 9
1 10
1 12
1 13
1 14
1 15
1 16
1 21
1 22
1 25
1 26
1 28
1 29
1 30
1 31
1 33
1 34
1 35
1 36
1 37
1 38
1 39
1 40
1 41
1 42
1 43
1 44
1 45
1 47
1 48
1 49
1 50
1 51
1 53
1 54
1 55
1 56
1 58
1 59
1 63
1 65
1 66
1 67
1 71
1 74
1 75
1 76
1 77
2 3
2 7
2 8
2 9
2 10
2 11
2 12
2 13
2 14
2 16
2 18
2 19
2 21
2 22
2 23
2 24
2 25
2 26
2 27
2 28
2 29
2 30
2 32
2 34
2 35
2 37
2 38
2 39
2 42
2 44
2 48
2 51
2 52
2 53
2 54
2 55
2 56
2 57
2 58
2 60
2 63
2 64
2 65
2 66
2 67
2 69
2 71
2 72
2 75
2 76
2 77
2 78
2 79
3 7
3 8
3 9
3 10
3 11
3 12
3 13
3 14
3 15
3 16
3 17
3 18
3 19
3 20
3 21
3 22
3 23
3 25
3 26
3 27
3 31
3 32
3 33
3 35
3 37
3 42
3 44
3 45
3 46
3 47
3 48
3 49
3 50
3 51
3 52
3 53
3 54
3 55
3 56
3 57
3 58
3 59
3 60
3 61
3 62
3 63
3 65
3 66
3 68
3 69
3 72
3 73
3 74
3 76
3 77
3 78
4 6
4 8
4 10
4 12
4 15
4 16
4 17
4 21
4 23
4 25
4 26
4 27
4 29
4 31
4 33
4 34
4 35
4 36
4 37
4 39
4 44
4 45
4 49
4 51
4 52
4 53
4 54
4 57
4 59
4 60
4 61
4 63
4 64
4 65
4 66
4 67
4 68
4 69
4 70
4 73
4 74
4 75
4 79
5 7
5 10
5 11
5 12
5 13
5 14
5 16
5 18
5 19
5 21
5 22
5 25
5 26
5 27
5 28
5 29
5 30
5 31
5 32
5 36
5 38
5 39
5 40
5 42
5 44
5 46
5 49
5 50
5 51
5 53
5 54
5 55
5 59
5 61
5 63
5 64
5 65
5 67
5 68
5 70
5 71
5 72
5 74
5 75
5 76
5 77
5 78
5 79
6 7
6 8
6 9
6 10
6 11
6 12
6 13
6 17
6 18
6 19
6 20
6 22
6 23
6 24
6 25
6 26
6 27
6 28
6 30
6 33
6 34
6 35
6 36
6 38
6 40
6 43
6 44
6 46
6 47
6 48
6 51
6 52
6 53
6 54
6 55
6 56
6 57
6 58
6 59
6 60
6 62
6 63
6 64
6 65
6 67
6 68
6 69
6 70
6 71
6 72
6 74
6 75
6 76
6 77
6 79
7 8
7 9
7 10
7 12
7 13
7 15
7 18
7 19
7 20
7 21
7 23
7 24
7 25
7 26
7 27
7 28
7 29
7 30
7 31
7 32
7 33
7 35
7 37
7 38
7 39
7 40
7 41
7 43
7 45
7 46
7 47
7 48
7 50
7 51
7 53
7 55
7 59
7 62
7 63
7 64
7 65
7 66
7 67
7 68
7 69
7 70
7 71
7 72
7 73
7 75
7 76
7 79
8 9
8 10
8 11
8 12
8 13
8 14
8 15
8 16
8 17
8 18
8 19
8 20
8 23
8 24
8 25
8 26
8 30
8 31
8 32
8 35
8 36
8 38
8 40
8 42
8 43
8 44
8 45
8 46
8 47
8 48
8 49
8 50
8 51
8 54
8 59
8 61
8 62
8 63
8 64
8 65
8 67
8 71
8 75
8 76
8 77
8 79
9 10
9 11
9 12
9 13
9 14
9 16
9 17
9 18
9 19
9 21
9 22
9 24
9 25
9 27
9 28
9 29
9 30
9 32
9 33
9 36
9 37
9 39
9 43
9 45
9 46
9 47
9 48
9 49
9 50
9 52
9 53
9 54
9 55
9 56
9 61
9 62
9 63
9 66
9 67
9 69
9 70
9 71
9 72
9 73
9 74
9 75
9 76
9 77
9 78
9 79
10 11
10 12
10 13
10 14
10 16
10 18
10 19
10 20
10 21
10 22
10 23
10 24
10 25
10 26
10 29
10 31
10 32
10 33
10 34
10 37
10 39
10 41
10 44
10 45
10 46
10 47
10 48
10 49
10 53
10 54
10 55
10 56
10 57
10 58
10 59
10 62
10 65
10 66
10 67
10 68
10 71
10 72
10 76
10 77
10 78
11 12
11 13
11 15
11 16
11 17
11 20
11 21
11 22
11 23
11 24
11 25
11 27
11 28
11 29
11 30
11 33
11 34
11 35
11 37
11 39
11 42
11 43
11 44
11 45
11 46
11 47
11 48
11 52
11 53
11 54
11 55
11 56
11 57
11 58
11 59
11 60
11 61
11 62
11 63
11 64
11 65
11 70
11 71
11 73
11 74
11 75
11 76
11 78
12 13
12 14
12 17
12 22
12 25
12 26
12 27
12 30
12 31
12 33
12 34
12 35
12 36
12 37
12 38
12 40
12 41
12 43
12 45
12 46
12 47
12 50
12 52
12 53
12 55
12 56
12 57
12 59
12 60
12 62
12 63
12 64
12 65
12 67
12 68
12 69
12 71
12 72
12 73
12 75
12 76
12 78
13 14
13 15
13 16
13 18
13 19
13 20
13 21
13 23
13 26
13 27
13 28
13 29
13 30
13 31
13 32
13 34
13 36
13 37
13 38
13 41
13 43
13 45
13 47
13 48
13 49
13 51
13 56
13 57
13 59
13 60
13 61
13 62
13 63
13 65
13 66
13 67
13 68
13 70
13 71
13 73
13 74
13 76
13 77
13 79
14 15
14 16
14 17
14 19
14 20
14 21
14 22
14 26
14 27
14 28
14 29
14 30
14 31
14 32
14 34
14 37
14 39
14 40
14 41
14 42
14 43
14 45
14 46
14 47
14 48
14 49
14 53
14 54
14 55
14 56
14 58
14 60
14 61
14 63
14 64
14 65
14 66
14 67
14 70
14 71
14 73
14 74
14 75
14 77
14 78
14 79
15 18
15 19
15 23
15 24
15 25
15 28
15 29
15 30
15 31
15 32
15 33
15 34
15 35
15 36
15 37
15 38
15 39
15 40
15 41
15 42
15 43
15 44
15 45
15 46
15 47
15 48
15 52
15 54
15 56
15 58
15 60
15 62
15 63
15 64
15 65
15 66
15 68
15 72
15 73
15 74
15 75
15 76
15 77
15 79
16 17
16 18
16 19
16 22
16 24
16 25
16 28
16 30
16 31
16 33
16 35
16 36
16 37
16 40
16 42
16 43
16 44
16 45
16 47
16 49
16 53
16 54
16 55
16 57
16 58
16 60
16 61
16 62
16 66
16 68
16 69
16 70
16 71
16 74
16 76
16 77
16 78
16 79
17 18
17 19
17 20
17 21
17 22
17 23
17 25
17 27
17 28
17 29
17 30
17 32
17 33
17 35
17 37
17 38
17 39
17 40
17 41
17 42
17 43
17 44
17 46
17 47
17 48
17 49
17 50
17 51
17 53
17 54
17 57
17 59
17 60
17 61
17 62
17 63
17 65
17 66
17 69
17 70
17 72
17 74
17 77
17 79
18 19
18 20
18 23
18 24
18 25
18 26
18 28
18 29
18 30
18 31
18 32
18 33
18 35
18 36
18 37
18 38
18 42
18 43
18 44
18 45
18 46
18 47
18 48
18 50
18 51
18 53
18 54
18 55
18 56
18 58
18 59
18 61
18 62
18 63
18 64
18 65
18 66
18 67
18 68
18 69
18 70
18 71
18 73
18 77
18 78
18 79
19 20
19 21
19 22
19 23
19 25
19 26
19 27
19 31
19 33
19 34
19 35
19 36
19 37
19 40
19 41
19 42
19 44
19 45
19 46
19 47
19 48
19 49
19 51
19 53
19 54
19 56
19 57
19 60
19 61
19 62
19 63
19 66
19 67
19 69
19 70
19 72
19 73
19 75
19 76
19 77
19 78
19 79
20 22
20 24
20 26
20 27
20 28
20 29
20 32
20 38
20 39
20 42
20 43
20 44
20 45
20 46
20 47
20 49
20 50
20 52
20 53
20 54
20 55
20 56
20 58
20 60
20 61
20 63
20 64
20 65
20 66
20 67
20 68
20 69
20 70
20 72
20 73
20 75
20 76
20 78
20 79
21 23
21 24
21 26
21 29
21 31
21 32
21 33
21 35
21 37
21 38
21 39
21 41
21 42
21 43
21 44
21 45
21 46
21 47
21 48
21 49
21 50
21 51
21 53
21 55
21 57
21 59
21 60
21 61
21 62
21 63
21 64
21 66
21 67
21 68
21 69
21 73
21 75
21 76
21 78
22 23
22 24
22 26
22 27
22 28
22 29
22 30
22 31
22 35
22 36
22 37
22 38
22 39
22 40
22 42
22 43
22 46
22 47
22 48
22 49
22 53
22 55
22 56
22 57
22 58
22 59
22 61
22 62
22 63
22 64
22 65
22 66
22 67
22 68
22 69
22 71
22 75
22 76
22 77
22 78
23 24
23 25
23 26
23 28
23 29
23 31
23 32
23 33
23 36
23 37
23 39
23 40
23 41
23 42
23 43
23 44
23 45
23 46
23 47
23 48
23 49
23 50
23 51
23 52
23 53
23 55
23 58
23 59
23 61
23 62
23 63
23 64
23 65
23 66
23 70
23 71
23 72
23 74
23 75
23 76
23 77
23 79
24 26
24 27
24 28
24 29
24 30
24 31
24 33
24 34
24 35
24 37
24 39
24 41
24 43
24 44
24 45
24 46
24 47
24 48
24 49
24 50
24 51
24 52
24 53
24 54
24 55
24 56
24 57
24 58
24 59
24 61
24 63
24 64
24 65
24 66
24 67
24 68
24 69
24 72
24 73
24 74
24 76
24 77
25 26
25 27
25 28
25 31
25 32
25 33
25 34
25 35
25 36
25 37
25 38
25 40
25 41
25 42
25 43
25 44
25 46
25 47
25 48
25 49
25 51
25 52
25 54
25 56
25 58
25 59
25 61
25 62
25 64
25 65
25 67
25 68
25 69
25 70
25 71
25 72
25 73
25 74
25 77
25 78
25 79
26 27
26 28
26 29
26 30
26 32
26 34
26 35
26 36
26 37
26 38
26 39
26 40
26 41
26 42
26 43
26 44
26 45
26 48
26 51
26 52
26 53
26 54
26 57
26 58
26 60
26 61
26 64
26 65
26 66
26 68
26 69
26 70
26 72
26 73
26 74
26 76
26 78
26 79
27 28
27 29
27 31
27 32
27 33
27 34
27 35
27 36
27 37
27 40
27 41
27 42
27 43
27 44
27 47
27 49
27 50
27 51
27 52
27 53
27 56
27 57
27 58
27 59
27 60
27 63
27 65
27 67
27 68
27 69
27 70
27 71
27 72
27 73
27 74
27 75
27 76
27 77
27 78
27 79
28 30
28 32
28 33
28 34
28 35
28 36
28 37
28 38
28 39
28 41
28 42
28 43
28 44
28 45
28 46
28 48
28 51
28 53
28 54
28 55
28 56
28 57
28 58
28 59
28 60
28 61
28 62
28 64
28 65
28 67
28 68
28 69
28 70
28 71
28 72
28 75
28 76
28 77
28 78
29 30
29 31
29 32
29 33
29 35
29 36
29 37
29 38
29 43
29 44
29 48
29 49
29 50
29 52
29 53
29 54
29 55
29 56
29 57
29 58
29 62
29 64
29 65
29 67
29 68
29 69
29 70
29 71
29 72
29 73
29 75
29 76
29 77
29 78
30 31
30 32
30 33
30 34
30 38
30 40
30 41
30 42
30 43
30 44
30 46
30 47
30 48
30 49
30 50
30 52
30 53
30 54
30 55
30 57
30 58
30 59
30 61
30 64
30 66
30 67
30 68
30 69
30 70
30 71
30 73
30 76
30 78
30 79
31 32
31 33
31 34
31 36
31 37
31 39
31 40
31 43
31 45
31 46
31 47
31 48
31 49
31 50
31 51
31 52
31 53
31 54
31 56
31 58
31 59
31 61
31 64
31 65
31 66
31 67
31 68
31 69
31 72
31 73
31 74
31 76
31 79
32 33
32 34
32 35
32 37
32 38
32 40
32 41
32 42
32 44
32 45
32 48
32 49
32 50
32 51
32 53
32 55
32 57
32 58
32 59
32 60
32 61
32 62
32 66
32 69
32 70
32 71
32 74
32 75
32 77
32 78
32 79
33 34
33 35
33 36
33 37
33 38
33 39
33 40
33 43
33 46
33 48
33 49
33 50
33 51
33 53
33 55
33 56
33 57
33 58
33 60
33 62
33 63
33 64
33 65
33 66
33 68
33 69
33 71
33 73
33 74
33 75
33 77
33 79
34 36
34 38
34 39
34 40
34 42
34 43
34 44
34 46
34 50
34 54
34 55
34 56
34 57
34 59
34 61
34 62
34 63
34 64
34 65
34 66
34 67
34 69
34 71
34 72
34 73
34 74
34 76
34 77
34 78
35 36
35 37
35 38
35 39
35 40
35 42
35 44
35 45
35 47
35 48
35 49
35 52
35 53
35 54
35 55
35 56
35 57
35 58
35 61
35 62
35 64
35 65
35 66
35 67
35 68
35 69
35 70
35 71
35 73
35 75
35 76
35 78
35 79
36 38
36 39
36 40
36 42
36 43
36 44
36 46
36 47
36 48
36 49
36 50
36 51
36 53
36 55
36 57
36 58
36 59
36 60
36 62
36 63
36 65
36 67
36 69
36 71
36 72
36 73
36 74
36 75
36 76
36 77
37 38
37 39
37 43
37 44
37 48
37 49
37 50
37 54
37 55
37 57
37 58
37 59
37 60
37 61
37 62
37 63
37 65
37 67
37 69
37 73
37 76
37 77
37 78
37 79
38 39
38 40
38 41
38 42
38 43
38 44
38 45
38 46
38 47
38 48
38 49
38 52
38 55
38 56
38 58
38 60
38 61
38 62
38 63
38 65
38 66
38 67
38 68
38 69
38 70
38 71
38 73
38 74
38 76
38 77
38 78
38 79
39 40
39 41
39 44
39 45
39 46
39 47
39 48
39 49
39 50
39 51
39 52
39 53
39 57
39 58
39 59
39 60
39 61
39 62
39 63
39 64
39 67
39 68
39 69
39 70
39 71
39 73
39 74
39 75
39 77
39 78
40 41
40 42
40 47
40 48
40 49
40 50
40 52
40 53
40 54
40 55
40 56
40 57
40 58
40 59
40 60
40 61
40 62
40 63
40 64
40 67
40 68
40 69
40 70
40 71
40 73
40 75
40 77
40 78
40 79
41 42
41 43
41 49
41 52
41 54
41 55
41 56
41 57
41 58
41 59
41 60
41 61
41 62
41 65
41 66
41 68
41 69
41 70
41 73
41 75
41 76
41 77
41 78
41 79
42 44
42 45
42 47
42 48
42 49
42 50
42 51
42 52
42 53
42 55
42 56
42 57
42 58
42 59
42 61
42 62
42 63
42 69
42 70
42 72
42 75
42 76
42 77
42 78
42 79
43 45
43 46
43 47
43 48
43 49
43 50
43 51
43 52
43 53
43 54
43 55
43 56
43 57
43 58
43 62
43 63
43 64
43 67
43 68
43 69
43 70
43 71
43 74
43 75
43 76
43 77
43 78
43 79
44 45
44 46
44 47
44 50
44 53
44 54
44 55
44 56
44 57
44 58
44 59
44 60
44 64
44 65
44 66
44 67
44 69
44 71
44 72
44 73
44 74
44 76
44 77
44 78
45 46
45 48
45 50
45 51
45 53
45 54
45 55
45 56
45 57
45 58
45 59
45 60
45 62
45 63
45 64
45 65
45 66
45 68
45 69
45 70
45 71
45 73
45 74
45 75
45 77
45 78
45 79
46 48
46 49
46 50
46 52
46 53
46 56
46 59
46 60
46 62
46 63
46 64
46 65
46 66
46 67
46 70
46 72
46 73
46 74
46 76
46 77
47 49
47 51
47 52
47 53
47 54
47 57
47 58
47 60
47 61
47 62
47 64
47 65
47 66
47 67
47 69
47 70
47 72
47 73
47 74
47 75
47 76
47 78
47 79
48 50
48 51
48 52
48 53
48 54
48 55
48 56
48 57
48 58
48 60
48 61
48 62
48 63
48 64
48 65
48 67
48 68
48 69
48 72
48 73
48 74
48 76
48 77
48 79
49 50
49 51
49 52
49 53
49 55
49 56
49 57
49 58
49 59
49 61
49 62
49 63
49 64
49 65
49 66
49 70
49 72
49 73
49 76
49 77
49 78
50 51
50 52
50 53
50 54
50 56
50 57
50 58
50 62
50 63
50 64
50 65
50 66
50 67
50 68
50 69
50 70
50 72
50 74
50 76
50 77
50 78
50 79
51 52
51 53
51 54
51 55
51 56
51 57
51 58
51 59
51 60
51 62
51 63
51 64
51 65
51 66
51 67
51 68
51 70
51 71
51 72
51 74
51 75
51 76
51 77
51 78
52 55
52 57
52 59
52 60
52 62
52 63
52 64
52 65
52 66
52 67
52 68
52 69
52 72
52 74
52 75
52 76
52 77
52 79
53 54
53 55
53 56
53 57
53 58
53 60
53 61
53 63
53 64
53 65
53 66
53 67
53 70
53 71
53 72
53 73
53 74
53 77
53 79
54 56
54 57
54 58
54 59
54 60
54 63
54 64
54 66
54 67
54 68
54 69
54 70
54 71
54 72
54 73
54 74
54 75
54 77
54 78
55 57
55 59
55 60
55 61
55 63
55 64
55 65
55 67
55 68
55 69
55 70
55 71
55 72
55 73
55 74
55 76
55 77
55 79
56 57
56 58
56 59
56 60
56 65
56 66
56 67
56 68
56 69
56 70
56 72
56 73
56 74
56 75
56 76
56 78
56 79
57 58
57 59
57 60
57 62
57 63
57 64
57 65
57 67
57 68
57 69
57 70
57 72
57 74
57 75
57 76
57 79
58 61
58 62
58 63
58 64
58 65
58 66
58 68
58 69
58 70
58 71
58 73
58 74
58 77
58 79
59 61
59 62
59 63
59 64
59 65
59 66
59 67
59 69
59 70
59 73
59 74
59 75
59 76
59 77
59 78
59 79
60 61
60 62
60 63
60 67
60 68
60 70
60 71
60 72
60 73
60 74
60 75
60 76
60 77
60 78
60 79
61 62
61 63
61 64
61 66
61 71
61 74
61 75
61 78
61 79
62 63
62 64
62 65
62 66
62 71
62 72
62 75
62 76
62 77
62 79
63 64
63 65
63 66
63 67
63 69
63 71
63 72
63 73
63 74
63 75
63 77
63 78
64 65
64 66
64 67
64 70
64 73
64 74
64 75
64 76
64 77
64 78
65 66
65 67
65 68
65 70
65 72
65 73
65 76
65 77
65 79
66 68
66 69
66 70
66 71
66 72
66 73
66 74
66 75
66 77
66 78
66 79
67 68
67 69
67 70
67 71
67 72
67 74
67 75
67 77
67 78
67 79
68 69
68 70
68 71
68 72
68 73
68 74
68 75
68 77
68 78
69 72
69 73
69 75
69 76
69 78
70 71
70 72
70 73
70 74
70 76
70 77
70 78
70 79
71 72
71 73
71 74
71 75
71 78
72 74
72 76
72 79
73 74
73 75
73 78
73 79
74 75
74 76
74 77
74 78
75 76
75 77
75 78
75 79
76 77
76 79
77 78
77 79
38 17 24 4 71 79 31 29 52 12 47 14 55 0 67 60 6 78 73 21 20 75 16 59
62 7 26 5 69 25 9 49 27 42 64 72 76 13 43 28 1 44 19 32 51 65 33 3
10 54 15 48 8 41 40 45 61 77 57 53 74 58 50 68 23 35 39 63 18 46 11 2
70 34 66 56 36 22 37 30
